20 61 138
1 5 5
1 10 5
1 15 2
1 16 1
1 19 5
2 3 5
2 7 5
2 8 3
2 12 2
2 14 1
3 4 3
3 5 2
3 6 1
3 11 3
3 13 3
3 14 5
3 17 5
4 5 1
4 6 3
4 9 2
4 14 2
4 16 1
4 20 2
5 14 1
5 17 2
5 19 2
5 20 1
6 9 5
6 10 1
6 16 5
6 20 5
7 9 4
7 12 5
7 14 5
7 18 1
7 20 4
8 10 5
8 12 4
8 14 2
8 20 2
9 14 1
9 20 5
10 15 2
10 20 3
11 12 1
11 14 2
11 16 5
12 15 2
12 19 2
13 18 2
13 19 2
13 20 4
14 16 1
14 17 1
14 18 5
15 16 2
15 19 2
16 17 2
16 18 4
16 20 5
17 19 5
